249 0 0 0 0 0 0 0 0 0 0 0 0 0 0 0 0 0 0 0 1
1995 1 1 1 0 1 1 1 1 1 1 1 1 0 1 0 0 0 1 0 1
2623 1 1 1 1 1 1 1 1 0 1 1 0 1 1 1 1 0 1 1 1
2607 1 1 1 0 1 1 1 1 1 1 1 0 1 1 1 1 1 1 1 1
2089 1 1 1 1 1 1 0 1 0 1 1 1 0 0 1 1 0 1 1 1
2062 1 1 1 1 1 1 0 1 1 1 1 1 1 1 1 1 1 0 1 1
2723 1 1 1 1 1 0 1 1 1 1 1 1 1 1 0 0 1 1 1 1
2193 1 1 1 1 0 1 1 1 0 1 1 0 1 1 1 1 1 0 1 1
2992 1 1 1 1 1 1 1 1 1 1 1 0 1 1 1 0 1 0 1 1
2197 0 1 1 1 1 1 1 1 1 1 0 1 0 1 1 1 1 1 1 1
2551 1 1 1 1 1 0 1 0 1 1 1 0 0 1 1 1 1 1 1 0
2372 1 1 1 1 1 1 1 1 1 1 1 1 0 1 1 1 1 1 0 0
2116 1 1 1 1 1 1 1 1 1 0 1 0 1 0 1 1 1 0 1 1
2368 1 1 0 0 1 1 1 1 1 0 1 1 1 1 1 1 1 0 1 0
2440 1 1 1 0 1 0 1 1 0 1 1 1 1 1 0 1 0 1 1 1
1609 1 1 1 1 1 1 1 1 1 1 1 1 0 1 0 0 1 1 0 1
2184 1 1 1 1 1 1 0 1 1 1 0 1 0 1 1 0 1 0 1 1
1903 1 0 0 1 1 1 0 1 1 0 1 1 0 1 1 0 1 0 1 1
2359 1 1 1 1 0 1 0 1 1 1 0 1 1 1 1 1 0 1 1 1
2550 0 1 0 1 1 0 1 1 1 1 1 1 1 1 1 1 1 1 0 1
2796 1 0 1 1 1 1 1 0 1 1 1 1 1 0 1 1 0 1 1 1
1953 1 1 1 1 1 1 1 1 1 1 0 1 1 1 0 1 1 0 1 1
2532 1 1 1 1 1 1 1 1 1 1 1 1 1 1 1 1 1 0 1 0
2347 1 0 1 1 1 1 1 0 1 0 1 1 0 1 1 1 1 1 1 1
2684 1 1 1 1 1 1 1 1 1 1 0 1 1 1 1 0 0 1 0 1
1903 1 0 1 1 0 1 0 1 1 1 1 1 1 1 0 1 0 1 0 1
2335 1 1 1 1 1 1 1 1 1 1 0 1 1 1 1 1 1 1 1 0
2365 1 1 1 1 1 1 0 1 1 0 1 1 1 1 1 1 0 0 1 1
2249 1 1 1 1 1 1 1 1 0 1 0 1 1 1 1 0 0 1 1 0
2041 1 1 0 1 1 1 1 1 1 0 1 1 1 1 0 1 1 0 1 0
2273 1 1 1 1 1 1 1 1 1 1 1 1 0 1 1 0 1 0 0 1
2435 1 1 1 1 1 1 1 1 1 0 0 1 1 1 0 1 1 1 1 1
2508 1 0 1 1 1 1 0 1 1 1 0 1 1 1 0 1 0 0 1 1
1863 1 0 1 1 1 1 0 1 0 1 0 1 1 1 1 1 1 1 1 0
2959 1 1 1 1 0 1 1 1 1 1 0 1 1 1 1 1 1 1 1 1
2411 1 0 1 1 1 1 1 1 1 1 1 1 1 0 1 0 1 1 1 1
2456 1 1 1 1 1 0 1 1 0 0 1 1 1 1 1 1 1 0 1 1
2333 1 1 1 0 1 1 1 1 1 0 0 1 1 1 1 1 0 1 1 0
1983 1 1 0 1 1 0 0 0 1 1 0 1 1 1 1 1 1 1 1 1
2041 0 1 1 1 1 1 1 1 1 1 1 1 0 1 1 1 1 1 1 0
2338 1 0 1 1 1 1 1 1 0 1 1 1 1 1 0 0 1 1 1 0
2818 1 1 1 1 1 1 1 0 1 1 1 1 1 1 1 1 1 1 1 1
2441 1 1 1 1 0 1 1 1 0 1 1 1 1 1 1 0 1 1 0 1
1821 1 1 1 1 1 0 1 1 0 1 0 1 0 1 1 1 0 1 0 1
2721 1 0 1 1 1 1 1 1 1 0 0 1 1 1 1 1 0 1 1 0
2421 1 1 1 1 1 1 1 1 1 1 0 1 1 1 1 1 0 0 1 1
2475 1 1 0 1 1 1 1 1 0 1 1 1 1 1 1 1 0 1 1 1
2417 1 1 1 1 1 1 1 0 1 1 1 0 1 0 1 1 1 1 1 1
2033 1 1 1 1 1 1 1 1 0 0 1 1 0 1 1 1 1 0 1 1
2168 1 1 1 1 1 1 0 1 1 0 1 1 1 0 0 1 1 1 0 1
